c *********************************
c * Circuit generated by BenCGen
c *
c * Parity_166
c *
c * Ports with 1 gate(s): 1
c * Ports with 2 gate(s): 166
c * Total gates: 167
c *********************************
p cnf 333 665
1 169 0
-1 -169 0
1 -168 0
169 -168 0
-1 -169 168 0
1 2 -170 0
-1 2 170 0
1 -2 170 0
-1 -2 -170 0
3 4 -171 0
-3 4 171 0
3 -4 171 0
-3 -4 -171 0
5 6 -172 0
-5 6 172 0
5 -6 172 0
-5 -6 -172 0
7 8 -173 0
-7 8 173 0
7 -8 173 0
-7 -8 -173 0
9 10 -174 0
-9 10 174 0
9 -10 174 0
-9 -10 -174 0
11 12 -175 0
-11 12 175 0
11 -12 175 0
-11 -12 -175 0
13 14 -176 0
-13 14 176 0
13 -14 176 0
-13 -14 -176 0
15 16 -177 0
-15 16 177 0
15 -16 177 0
-15 -16 -177 0
17 18 -178 0
-17 18 178 0
17 -18 178 0
-17 -18 -178 0
19 20 -179 0
-19 20 179 0
19 -20 179 0
-19 -20 -179 0
21 22 -180 0
-21 22 180 0
21 -22 180 0
-21 -22 -180 0
23 24 -181 0
-23 24 181 0
23 -24 181 0
-23 -24 -181 0
25 26 -182 0
-25 26 182 0
25 -26 182 0
-25 -26 -182 0
27 28 -183 0
-27 28 183 0
27 -28 183 0
-27 -28 -183 0
29 30 -184 0
-29 30 184 0
29 -30 184 0
-29 -30 -184 0
31 32 -185 0
-31 32 185 0
31 -32 185 0
-31 -32 -185 0
33 34 -186 0
-33 34 186 0
33 -34 186 0
-33 -34 -186 0
35 36 -187 0
-35 36 187 0
35 -36 187 0
-35 -36 -187 0
37 38 -188 0
-37 38 188 0
37 -38 188 0
-37 -38 -188 0
39 40 -189 0
-39 40 189 0
39 -40 189 0
-39 -40 -189 0
41 42 -190 0
-41 42 190 0
41 -42 190 0
-41 -42 -190 0
43 44 -191 0
-43 44 191 0
43 -44 191 0
-43 -44 -191 0
45 46 -192 0
-45 46 192 0
45 -46 192 0
-45 -46 -192 0
47 48 -193 0
-47 48 193 0
47 -48 193 0
-47 -48 -193 0
49 50 -194 0
-49 50 194 0
49 -50 194 0
-49 -50 -194 0
51 52 -195 0
-51 52 195 0
51 -52 195 0
-51 -52 -195 0
53 54 -196 0
-53 54 196 0
53 -54 196 0
-53 -54 -196 0
55 56 -197 0
-55 56 197 0
55 -56 197 0
-55 -56 -197 0
57 58 -198 0
-57 58 198 0
57 -58 198 0
-57 -58 -198 0
59 60 -199 0
-59 60 199 0
59 -60 199 0
-59 -60 -199 0
61 62 -200 0
-61 62 200 0
61 -62 200 0
-61 -62 -200 0
63 64 -201 0
-63 64 201 0
63 -64 201 0
-63 -64 -201 0
65 66 -202 0
-65 66 202 0
65 -66 202 0
-65 -66 -202 0
67 68 -203 0
-67 68 203 0
67 -68 203 0
-67 -68 -203 0
69 70 -204 0
-69 70 204 0
69 -70 204 0
-69 -70 -204 0
71 72 -205 0
-71 72 205 0
71 -72 205 0
-71 -72 -205 0
73 74 -206 0
-73 74 206 0
73 -74 206 0
-73 -74 -206 0
75 76 -207 0
-75 76 207 0
75 -76 207 0
-75 -76 -207 0
77 78 -208 0
-77 78 208 0
77 -78 208 0
-77 -78 -208 0
79 80 -209 0
-79 80 209 0
79 -80 209 0
-79 -80 -209 0
81 82 -210 0
-81 82 210 0
81 -82 210 0
-81 -82 -210 0
83 84 -211 0
-83 84 211 0
83 -84 211 0
-83 -84 -211 0
85 86 -212 0
-85 86 212 0
85 -86 212 0
-85 -86 -212 0
87 88 -213 0
-87 88 213 0
87 -88 213 0
-87 -88 -213 0
89 90 -214 0
-89 90 214 0
89 -90 214 0
-89 -90 -214 0
91 92 -215 0
-91 92 215 0
91 -92 215 0
-91 -92 -215 0
93 94 -216 0
-93 94 216 0
93 -94 216 0
-93 -94 -216 0
95 96 -217 0
-95 96 217 0
95 -96 217 0
-95 -96 -217 0
97 98 -218 0
-97 98 218 0
97 -98 218 0
-97 -98 -218 0
99 100 -219 0
-99 100 219 0
99 -100 219 0
-99 -100 -219 0
101 102 -220 0
-101 102 220 0
101 -102 220 0
-101 -102 -220 0
103 104 -221 0
-103 104 221 0
103 -104 221 0
-103 -104 -221 0
105 106 -222 0
-105 106 222 0
105 -106 222 0
-105 -106 -222 0
107 108 -223 0
-107 108 223 0
107 -108 223 0
-107 -108 -223 0
109 110 -224 0
-109 110 224 0
109 -110 224 0
-109 -110 -224 0
111 112 -225 0
-111 112 225 0
111 -112 225 0
-111 -112 -225 0
113 114 -226 0
-113 114 226 0
113 -114 226 0
-113 -114 -226 0
115 116 -227 0
-115 116 227 0
115 -116 227 0
-115 -116 -227 0
117 118 -228 0
-117 118 228 0
117 -118 228 0
-117 -118 -228 0
119 120 -229 0
-119 120 229 0
119 -120 229 0
-119 -120 -229 0
121 122 -230 0
-121 122 230 0
121 -122 230 0
-121 -122 -230 0
123 124 -231 0
-123 124 231 0
123 -124 231 0
-123 -124 -231 0
125 126 -232 0
-125 126 232 0
125 -126 232 0
-125 -126 -232 0
127 128 -233 0
-127 128 233 0
127 -128 233 0
-127 -128 -233 0
129 130 -234 0
-129 130 234 0
129 -130 234 0
-129 -130 -234 0
131 132 -235 0
-131 132 235 0
131 -132 235 0
-131 -132 -235 0
133 134 -236 0
-133 134 236 0
133 -134 236 0
-133 -134 -236 0
135 136 -237 0
-135 136 237 0
135 -136 237 0
-135 -136 -237 0
137 138 -238 0
-137 138 238 0
137 -138 238 0
-137 -138 -238 0
139 140 -239 0
-139 140 239 0
139 -140 239 0
-139 -140 -239 0
141 142 -240 0
-141 142 240 0
141 -142 240 0
-141 -142 -240 0
143 144 -241 0
-143 144 241 0
143 -144 241 0
-143 -144 -241 0
145 146 -242 0
-145 146 242 0
145 -146 242 0
-145 -146 -242 0
147 148 -243 0
-147 148 243 0
147 -148 243 0
-147 -148 -243 0
149 150 -244 0
-149 150 244 0
149 -150 244 0
-149 -150 -244 0
151 152 -245 0
-151 152 245 0
151 -152 245 0
-151 -152 -245 0
153 154 -246 0
-153 154 246 0
153 -154 246 0
-153 -154 -246 0
155 156 -247 0
-155 156 247 0
155 -156 247 0
-155 -156 -247 0
157 158 -248 0
-157 158 248 0
157 -158 248 0
-157 -158 -248 0
159 160 -249 0
-159 160 249 0
159 -160 249 0
-159 -160 -249 0
161 162 -250 0
-161 162 250 0
161 -162 250 0
-161 -162 -250 0
163 164 -251 0
-163 164 251 0
163 -164 251 0
-163 -164 -251 0
165 166 -252 0
-165 166 252 0
165 -166 252 0
-165 -166 -252 0
170 171 -253 0
-170 171 253 0
170 -171 253 0
-170 -171 -253 0
172 173 -254 0
-172 173 254 0
172 -173 254 0
-172 -173 -254 0
174 175 -255 0
-174 175 255 0
174 -175 255 0
-174 -175 -255 0
176 177 -256 0
-176 177 256 0
176 -177 256 0
-176 -177 -256 0
178 179 -257 0
-178 179 257 0
178 -179 257 0
-178 -179 -257 0
180 181 -258 0
-180 181 258 0
180 -181 258 0
-180 -181 -258 0
182 183 -259 0
-182 183 259 0
182 -183 259 0
-182 -183 -259 0
184 185 -260 0
-184 185 260 0
184 -185 260 0
-184 -185 -260 0
186 187 -261 0
-186 187 261 0
186 -187 261 0
-186 -187 -261 0
188 189 -262 0
-188 189 262 0
188 -189 262 0
-188 -189 -262 0
190 191 -263 0
-190 191 263 0
190 -191 263 0
-190 -191 -263 0
192 193 -264 0
-192 193 264 0
192 -193 264 0
-192 -193 -264 0
194 195 -265 0
-194 195 265 0
194 -195 265 0
-194 -195 -265 0
196 197 -266 0
-196 197 266 0
196 -197 266 0
-196 -197 -266 0
198 199 -267 0
-198 199 267 0
198 -199 267 0
-198 -199 -267 0
200 201 -268 0
-200 201 268 0
200 -201 268 0
-200 -201 -268 0
202 203 -269 0
-202 203 269 0
202 -203 269 0
-202 -203 -269 0
204 205 -270 0
-204 205 270 0
204 -205 270 0
-204 -205 -270 0
206 207 -271 0
-206 207 271 0
206 -207 271 0
-206 -207 -271 0
208 209 -272 0
-208 209 272 0
208 -209 272 0
-208 -209 -272 0
210 211 -273 0
-210 211 273 0
210 -211 273 0
-210 -211 -273 0
212 213 -274 0
-212 213 274 0
212 -213 274 0
-212 -213 -274 0
214 215 -275 0
-214 215 275 0
214 -215 275 0
-214 -215 -275 0
216 217 -276 0
-216 217 276 0
216 -217 276 0
-216 -217 -276 0
218 219 -277 0
-218 219 277 0
218 -219 277 0
-218 -219 -277 0
220 221 -278 0
-220 221 278 0
220 -221 278 0
-220 -221 -278 0
222 223 -279 0
-222 223 279 0
222 -223 279 0
-222 -223 -279 0
224 225 -280 0
-224 225 280 0
224 -225 280 0
-224 -225 -280 0
226 227 -281 0
-226 227 281 0
226 -227 281 0
-226 -227 -281 0
228 229 -282 0
-228 229 282 0
228 -229 282 0
-228 -229 -282 0
230 231 -283 0
-230 231 283 0
230 -231 283 0
-230 -231 -283 0
232 233 -284 0
-232 233 284 0
232 -233 284 0
-232 -233 -284 0
234 235 -285 0
-234 235 285 0
234 -235 285 0
-234 -235 -285 0
236 237 -286 0
-236 237 286 0
236 -237 286 0
-236 -237 -286 0
238 239 -287 0
-238 239 287 0
238 -239 287 0
-238 -239 -287 0
240 241 -288 0
-240 241 288 0
240 -241 288 0
-240 -241 -288 0
242 243 -289 0
-242 243 289 0
242 -243 289 0
-242 -243 -289 0
244 245 -290 0
-244 245 290 0
244 -245 290 0
-244 -245 -290 0
246 247 -291 0
-246 247 291 0
246 -247 291 0
-246 -247 -291 0
248 249 -292 0
-248 249 292 0
248 -249 292 0
-248 -249 -292 0
250 251 -293 0
-250 251 293 0
250 -251 293 0
-250 -251 -293 0
253 254 -294 0
-253 254 294 0
253 -254 294 0
-253 -254 -294 0
255 256 -295 0
-255 256 295 0
255 -256 295 0
-255 -256 -295 0
257 258 -296 0
-257 258 296 0
257 -258 296 0
-257 -258 -296 0
259 260 -297 0
-259 260 297 0
259 -260 297 0
-259 -260 -297 0
261 262 -298 0
-261 262 298 0
261 -262 298 0
-261 -262 -298 0
263 264 -299 0
-263 264 299 0
263 -264 299 0
-263 -264 -299 0
265 266 -300 0
-265 266 300 0
265 -266 300 0
-265 -266 -300 0
267 268 -301 0
-267 268 301 0
267 -268 301 0
-267 -268 -301 0
269 270 -302 0
-269 270 302 0
269 -270 302 0
-269 -270 -302 0
271 272 -303 0
-271 272 303 0
271 -272 303 0
-271 -272 -303 0
273 274 -304 0
-273 274 304 0
273 -274 304 0
-273 -274 -304 0
275 276 -305 0
-275 276 305 0
275 -276 305 0
-275 -276 -305 0
277 278 -306 0
-277 278 306 0
277 -278 306 0
-277 -278 -306 0
279 280 -307 0
-279 280 307 0
279 -280 307 0
-279 -280 -307 0
281 282 -308 0
-281 282 308 0
281 -282 308 0
-281 -282 -308 0
283 284 -309 0
-283 284 309 0
283 -284 309 0
-283 -284 -309 0
285 286 -310 0
-285 286 310 0
285 -286 310 0
-285 -286 -310 0
287 288 -311 0
-287 288 311 0
287 -288 311 0
-287 -288 -311 0
289 290 -312 0
-289 290 312 0
289 -290 312 0
-289 -290 -312 0
291 292 -313 0
-291 292 313 0
291 -292 313 0
-291 -292 -313 0
293 252 -314 0
-293 252 314 0
293 -252 314 0
-293 -252 -314 0
294 295 -315 0
-294 295 315 0
294 -295 315 0
-294 -295 -315 0
296 297 -316 0
-296 297 316 0
296 -297 316 0
-296 -297 -316 0
298 299 -317 0
-298 299 317 0
298 -299 317 0
-298 -299 -317 0
300 301 -318 0
-300 301 318 0
300 -301 318 0
-300 -301 -318 0
302 303 -319 0
-302 303 319 0
302 -303 319 0
-302 -303 -319 0
304 305 -320 0
-304 305 320 0
304 -305 320 0
-304 -305 -320 0
306 307 -321 0
-306 307 321 0
306 -307 321 0
-306 -307 -321 0
308 309 -322 0
-308 309 322 0
308 -309 322 0
-308 -309 -322 0
310 311 -323 0
-310 311 323 0
310 -311 323 0
-310 -311 -323 0
312 313 -324 0
-312 313 324 0
312 -313 324 0
-312 -313 -324 0
315 316 -325 0
-315 316 325 0
315 -316 325 0
-315 -316 -325 0
317 318 -326 0
-317 318 326 0
317 -318 326 0
-317 -318 -326 0
319 320 -327 0
-319 320 327 0
319 -320 327 0
-319 -320 -327 0
321 322 -328 0
-321 322 328 0
321 -322 328 0
-321 -322 -328 0
323 324 -329 0
-323 324 329 0
323 -324 329 0
-323 -324 -329 0
325 326 -330 0
-325 326 330 0
325 -326 330 0
-325 -326 -330 0
327 328 -331 0
-327 328 331 0
327 -328 331 0
-327 -328 -331 0
329 314 -332 0
-329 314 332 0
329 -314 332 0
-329 -314 -332 0
330 331 -333 0
-330 331 333 0
330 -331 333 0
-330 -331 -333 0
333 332 -167 0
-333 332 167 0
333 -332 167 0
-333 -332 -167 0
